p cnf 7230 17
-7180 -7188 0
-289 -7171 7180 0
7159 7175 -7185 0
-6197 -7167 7183 0
7149 7165 -7181 0
-7159 -7186 0
6197 -7184 0
-7149 -7182 0
7185 7186 0
-7183 7184 0
7181 7182 0
-7175 -7186 0
7167 -7184 0
-7165 -7182 0
7179 -7180 0
-7177 -7188 0
-7179 7180 0
